c nIsolatedPIs 0
c maxPI 32
p cnf 126 283
c gate 33 -16 -32 0
-16 -33 0
-32 -33 0
16 32 33 0
c gate 34 16 32 0
16 -34 0
32 -34 0
-16 -32 34 0
c gate 35 -33 -34 0
-33 -35 0
-34 -35 0
33 34 35 0
c gate 36 15 31 0
15 -36 0
31 -36 0
-15 -31 36 0
c gate 37 -15 -31 0
-15 -37 0
-31 -37 0
15 31 37 0
c gate 38 -14 -30 0
-14 -38 0
-30 -38 0
14 30 38 0
c gate 39 -37 -38 0
-37 -39 0
-38 -39 0
37 38 39 0
c gate 40 14 30 0
14 -40 0
30 -40 0
-14 -30 40 0
c gate 41 13 29 0
13 -41 0
29 -41 0
-13 -29 41 0
c gate 42 -40 -41 0
-40 -42 0
-41 -42 0
40 41 42 0
c gate 43 -12 -28 0
-12 -43 0
-28 -43 0
12 28 43 0
c gate 44 -13 -29 0
-13 -44 0
-29 -44 0
13 29 44 0
c gate 45 -43 -44 0
-43 -45 0
-44 -45 0
43 44 45 0
c gate 46 -11 -27 0
-11 -46 0
-27 -46 0
11 27 46 0
c gate 47 -10 -26 0
-10 -47 0
-26 -47 0
10 26 47 0
c gate 48 -46 -47 0
-46 -48 0
-47 -48 0
46 47 48 0
c gate 49 9 25 0
9 -49 0
25 -49 0
-9 -25 49 0
c gate 50 10 26 0
10 -50 0
26 -50 0
-10 -26 50 0
c gate 51 -49 -50 0
-49 -51 0
-50 -51 0
49 50 51 0
c gate 52 -8 -24 0
-8 -52 0
-24 -52 0
8 24 52 0
c gate 53 8 24 0
8 -53 0
24 -53 0
-8 -24 53 0
c gate 54 -52 -53 0
-52 -54 0
-53 -54 0
52 53 54 0
c gate 55 7 23 0
7 -55 0
23 -55 0
-7 -23 55 0
c gate 56 -7 -23 0
-7 -56 0
-23 -56 0
7 23 56 0
c gate 57 -6 -22 0
-6 -57 0
-22 -57 0
6 22 57 0
c gate 58 6 22 0
6 -58 0
22 -58 0
-6 -22 58 0
c gate 59 -5 -21 0
-5 -59 0
-21 -59 0
5 21 59 0
c gate 60 5 21 0
5 -60 0
21 -60 0
-5 -21 60 0
c gate 61 -59 -60 0
-59 -61 0
-60 -61 0
59 60 61 0
c gate 62 -4 -20 0
-4 -62 0
-20 -62 0
4 20 62 0
c gate 63 4 20 0
4 -63 0
20 -63 0
-4 -20 63 0
c gate 64 -62 -63 0
-62 -64 0
-63 -64 0
62 63 64 0
c gate 65 -3 -19 0
-3 -65 0
-19 -65 0
3 19 65 0
c gate 66 1 17 0
1 -66 0
17 -66 0
-1 -17 66 0
c gate 67 2 66 0
2 -67 0
66 -67 0
-2 -66 67 0
c gate 68 -2 -66 0
-2 -68 0
-66 -68 0
2 66 68 0
c gate 69 18 -68 0
18 -69 0
-68 -69 0
-18 68 69 0
c gate 70 3 19 0
3 -70 0
19 -70 0
-3 -19 70 0
c gate 71 -69 -70 0
-69 -71 0
-70 -71 0
69 70 71 0
c gate 72 -67 71 0
-67 -72 0
71 -72 0
67 -71 72 0
c gate 73 -65 -72 0
-65 -73 0
-72 -73 0
65 72 73 0
c gate 74 64 -73 0
64 -74 0
-73 -74 0
-64 73 74 0
c gate 75 -62 -74 0
-62 -75 0
-74 -75 0
62 74 75 0
c gate 76 61 -75 0
61 -76 0
-75 -76 0
-61 75 76 0
c gate 77 -59 -76 0
-59 -77 0
-76 -77 0
59 76 77 0
c gate 78 -58 -77 0
-58 -78 0
-77 -78 0
58 77 78 0
c gate 79 -57 -78 0
-57 -79 0
-78 -79 0
57 78 79 0
c gate 80 -56 79 0
-56 -80 0
79 -80 0
56 -79 80 0
c gate 81 -55 -80 0
-55 -81 0
-80 -81 0
55 80 81 0
c gate 82 54 81 0
54 -82 0
81 -82 0
-54 -81 82 0
c gate 83 -9 -25 0
-9 -83 0
-25 -83 0
9 25 83 0
c gate 84 -52 -83 0
-52 -84 0
-83 -84 0
52 83 84 0
c gate 85 -82 84 0
-82 -85 0
84 -85 0
82 -84 85 0
c gate 86 51 -85 0
51 -86 0
-85 -86 0
-51 85 86 0
c gate 87 48 -86 0
48 -87 0
-86 -87 0
-48 86 87 0
c gate 88 11 27 0
11 -88 0
27 -88 0
-11 -27 88 0
c gate 89 12 28 0
12 -89 0
28 -89 0
-12 -28 89 0
c gate 90 -88 -89 0
-88 -90 0
-89 -90 0
88 89 90 0
c gate 91 -87 90 0
-87 -91 0
90 -91 0
87 -90 91 0
c gate 92 45 -91 0
45 -92 0
-91 -92 0
-45 91 92 0
c gate 93 42 -92 0
42 -93 0
-92 -93 0
-42 92 93 0
c gate 94 39 -93 0
39 -94 0
-93 -94 0
-39 93 94 0
c gate 95 -36 -94 0
-36 -95 0
-94 -95 0
36 94 95 0
c gate 96 -35 95 0
-35 -96 0
95 -96 0
35 -95 96 0
c gate 97 35 -95 0
35 -97 0
-95 -97 0
-35 95 97 0
c gate 98 -96 -97 0
-96 -98 0
-97 -98 0
96 97 98 0
c gate 99 48 -88 0
48 -99 0
-88 -99 0
-48 88 99 0
c gate 100 -55 -56 0
-55 -100 0
-56 -100 0
55 56 100 0
c gate 101 -57 -58 0
-57 -101 0
-58 -101 0
57 58 101 0
c gate 102 64 -71 0
64 -102 0
-71 -102 0
-64 71 102 0
c gate 103 -63 -102 0
-63 -103 0
-102 -103 0
63 102 103 0
c gate 104 -59 -103 0
-59 -104 0
-103 -104 0
59 103 104 0
c gate 105 -60 -104 0
-60 -105 0
-104 -105 0
60 104 105 0
c gate 106 101 -105 0
101 -106 0
-105 -106 0
-101 105 106 0
c gate 107 -58 -106 0
-58 -107 0
-106 -107 0
58 106 107 0
c gate 108 100 -107 0
100 -108 0
-107 -108 0
-100 107 108 0
c gate 109 -55 -108 0
-55 -109 0
-108 -109 0
55 108 109 0
c gate 110 -53 109 0
-53 -110 0
109 -110 0
53 -109 110 0
c gate 111 84 -110 0
84 -111 0
-110 -111 0
-84 110 111 0
c gate 112 51 -111 0
51 -112 0
-111 -112 0
-51 111 112 0
c gate 113 99 -112 0
99 -113 0
-112 -113 0
-99 112 113 0
c gate 114 90 -113 0
90 -114 0
-113 -114 0
-90 113 114 0
c gate 115 45 -114 0
45 -115 0
-114 -115 0
-45 114 115 0
c gate 116 42 -115 0
42 -116 0
-115 -116 0
-42 115 116 0
c gate 117 -38 -116 0
-38 -117 0
-116 -117 0
38 116 117 0
c gate 118 -36 -117 0
-36 -118 0
-117 -118 0
36 117 118 0
c gate 119 -37 -118 0
-37 -119 0
-118 -119 0
37 118 119 0
c gate 120 -35 119 0
-35 -120 0
119 -120 0
35 -119 120 0
c gate 121 35 -119 0
35 -121 0
-119 -121 0
-35 119 121 0
c gate 122 -120 -121 0
-120 -122 0
-121 -122 0
120 121 122 0
c gate 123 98 122 0
98 -123 0
122 -123 0
-98 -122 123 0
c gate 124 -98 -122 0
-98 -124 0
-122 -124 0
98 122 124 0
c gate 125 -123 -124 0
-123 -125 0
-124 -125 0
123 124 125 0
c gate 126 35 -125 0
35 -126 0
-125 -126 0
-35 125 126 0
c PO
126 0
